 200 71 
 64 20 10 97 9 10 18 88 52 38 77 2 
 15 78 94 32 18 29 27 76 19 9 24 3 
 18 50 80 60 45 45 21 98 50 21 68 34 
 57 82 57 58 44 12 85 1 56 40 73 55 
 14 98 27 32 31 92 4 68 84 17 73 34 
 32 90 55 66 13 14 2 21 9 85 92 
 47 
 1 2 5 7 9 10 17 18 19 20 22 23 
 24 25 26 28 29 31 32 34 37 38 39 40 
 41 42 43 47 48 49 50 51 52 54 56 57 
 59 60 62 63 64 66 67 68 69 70 71 
 36 
 2 3 4 6 7 11 12 13 19 23 25 26 
 27 30 31 33 37 38 40 43 46 48 50 51 
 52 55 57 58 59 61 64 65 68 69 70 71 
 35 
 5 6 7 9 10 12 13 14 15 18 19 21 
 23 24 25 27 30 31 36 37 43 44 48 50 
 51 53 55 56 57 58 59 61 65 68 71 
 39 
 2 3 5 6 7 9 11 12 13 15 17 20 
 22 24 25 27 34 38 39 41 43 44 45 50 
 51 52 53 55 56 57 59 61 62 63 64 66 
 68 69 71 
 27 
 1 4 14 15 16 18 20 22 23 26 27 29 
 31 34 40 42 51 52 53 55 56 57 64 65 
 66 67 71 
 18 
 6 7 8 10 12 15 16 17 19 25 27 29 
 31 34 54 61 65 69 
 32 
 1 2 3 7 9 10 11 14 15 20 21 23 
 24 26 28 33 34 36 37 38 40 42 43 47 
 54 56 57 59 62 64 66 67 
 33 
 2 5 8 10 11 13 14 15 16 19 21 22 
 23 24 26 28 30 35 37 39 40 44 45 46 
 52 54 55 57 61 62 64 69 71 
 13 
 3 7 12 15 24 25 29 30 36 54 55 64 
 68 
 41 
 1 2 3 6 7 11 12 14 15 16 23 24 
 25 27 28 30 31 32 35 37 38 39 40 41 
 42 44 48 49 50 51 52 53 57 58 59 61 
 62 65 66 67 69 
 71 
 1 2 3 4 5 6 7 8 9 10 11 12 
 13 14 15 16 17 18 19 20 21 22 23 24 
 25 26 27 28 29 30 31 32 33 34 35 36 
 37 38 39 40 41 42 43 44 45 46 47 48 
 49 50 51 52 53 54 55 56 57 58 59 60 
 61 62 63 64 65 66 67 68 69 70 71 
 61 
 1 2 3 5 6 8 9 10 12 13 14 16 
 17 18 19 20 21 22 24 25 26 27 29 30 
 31 32 33 34 35 36 37 38 39 41 42 43 
 44 46 47 48 49 50 51 52 54 55 57 58 
 59 60 61 62 63 64 65 66 67 68 69 70 
 71 
 25 
 5 6 7 8 9 12 22 23 27 28 30 31 
 37 41 44 45 46 50 53 54 56 60 62 64 
 65 
 59 
 1 2 3 4 5 6 7 8 9 10 11 12 
 14 16 17 18 19 20 21 23 24 25 26 27 
 28 30 31 32 33 34 35 36 37 38 39 41 
 42 43 44 45 47 49 50 54 55 56 57 58 
 59 60 61 62 63 64 65 66 68 69 71 
 50 
 2 3 4 5 6 7 8 10 11 12 13 15 
 17 18 19 20 21 22 23 24 25 26 27 28 
 31 33 34 36 38 40 42 43 44 45 47 48 
 51 52 53 54 56 57 58 60 61 64 68 69 
 70 71 
 58 
 1 2 3 4 5 6 7 8 9 10 12 13 
 14 15 17 18 19 20 21 22 23 25 26 28 
 29 34 36 37 38 39 40 41 43 44 45 46 
 47 48 49 50 51 52 53 55 56 57 58 59 
 60 61 63 64 65 66 68 69 70 71 
 28 
 1 3 4 6 7 11 14 19 21 23 25 28 
 29 36 41 43 46 48 49 50 52 55 56 60 
 63 67 68 69 
 19 
 1 3 6 7 8 15 16 27 28 32 36 40 
 44 46 57 61 63 64 70 
 64 
 1 2 3 4 5 6 8 9 10 11 12 13 
 14 15 16 17 18 19 20 21 22 23 24 25 
 26 27 28 29 30 31 32 33 34 35 36 37 
 38 39 40 41 42 44 45 46 48 49 50 51 
 52 54 55 57 58 59 61 63 64 65 66 67 
 68 69 70 71 
 36 
 4 5 7 11 13 15 16 19 22 23 25 26 
 28 34 37 40 43 44 45 46 47 48 49 50 
 51 52 54 55 56 57 58 59 61 64 66 69 
 71 
 1 2 3 4 5 6 7 8 9 10 11 12 
 13 14 15 16 17 18 19 20 21 22 23 24 
 25 26 27 28 29 30 31 32 33 34 35 36 
 37 38 39 40 41 42 43 44 45 46 47 48 
 49 50 51 52 53 54 55 56 57 58 59 60 
 61 62 63 64 65 66 67 68 69 70 71 
 26 
 2 4 5 7 12 16 18 28 29 30 33 35 
 37 38 45 48 50 56 57 59 61 63 64 66 
 67 69 
 42 
 1 4 5 7 10 12 13 15 17 18 19 20 
 21 23 26 27 29 30 31 33 34 36 37 38 
 40 41 42 43 44 47 48 50 53 55 56 58 
 59 60 62 63 68 70 
 12 
 1 7 18 23 27 31 37 46 53 54 60 63 
 69 
 1 2 3 4 5 6 7 8 9 10 11 12 
 13 15 16 17 18 19 20 21 22 23 24 25 
 26 27 28 29 30 31 32 33 34 35 36 37 
 38 39 40 41 42 43 44 45 47 48 49 50 
 51 52 53 54 55 56 57 58 59 60 61 62 
 63 64 65 66 67 68 69 70 71 
 46 
 2 3 5 7 10 12 13 15 16 19 20 21 
 23 24 26 27 28 29 30 32 34 36 37 39 
 40 41 44 45 46 47 48 49 50 51 52 55 
 56 57 58 59 60 61 63 68 69 70 
 30 
 1 3 4 6 8 10 13 15 16 20 23 24 
 26 31 32 36 37 38 41 42 45 47 50 60 
 63 64 66 67 70 71 
 59 
 1 2 5 6 7 8 10 11 12 13 14 15 
 16 17 18 21 22 23 24 25 26 27 28 29 
 31 32 33 34 35 36 38 39 40 41 42 44 
 45 46 47 48 50 51 52 53 55 56 57 58 
 59 61 62 63 64 65 66 67 68 69 71 
 50 
 1 2 4 5 6 7 8 10 11 13 14 15 
 17 18 19 20 21 22 23 26 27 28 29 30 
 31 33 35 36 38 39 42 43 44 45 50 51 
 52 53 54 55 57 58 59 60 62 64 65 66 
 67 68 
 68 
 1 3 4 5 6 7 8 9 10 11 12 13 
 14 15 16 18 19 20 21 22 23 24 25 26 
 27 29 30 31 32 33 34 35 36 37 38 39 
 40 41 42 43 44 45 46 47 48 49 50 51 
 52 53 54 55 56 57 58 59 60 61 62 63 
 64 65 66 67 68 69 70 71 
 2 
 16 64 
 37 
 1 2 4 6 7 8 9 11 13 15 19 22 
 26 27 31 32 35 41 42 44 45 46 47 48 
 50 52 53 56 57 59 61 62 63 64 67 70 
 71 
 66 
 1 2 3 4 5 6 7 8 9 10 11 12 
 13 14 16 18 19 21 22 23 24 25 26 27 
 28 29 30 31 32 33 34 35 36 37 38 39 
 40 41 42 43 44 45 46 47 48 49 50 51 
 52 53 54 55 56 57 58 59 61 63 64 65 
 66 67 68 69 70 71 
 22 
 3 5 12 16 17 21 24 26 27 32 34 35 
 38 40 43 44 45 57 65 68 70 71 
 24 
 1 2 3 5 7 9 12 14 19 22 29 30 
 31 32 34 37 38 40 44 46 48 50 53 54 
 18 
 1 3 5 11 18 21 32 35 37 40 43 44 
 56 59 66 67 69 71 
 32 
 3 4 5 6 7 8 11 12 14 16 19 21 
 25 26 27 28 29 32 33 35 37 38 46 50 
 55 56 61 65 67 68 70 71 
 63 
 1 2 3 4 6 7 8 10 11 12 13 14 
 15 16 17 18 19 20 21 23 24 26 28 29 
 30 31 32 33 34 35 36 37 38 39 40 42 
 43 44 45 46 47 48 49 50 51 52 53 54 
 55 57 58 59 60 61 62 63 64 65 67 68 
 69 70 71 
 38 
 2 3 4 8 10 11 13 15 16 20 21 23 
 25 27 28 29 30 31 32 34 35 40 41 42 
 43 46 47 49 51 52 53 58 59 60 61 62 
 64 65 
 45 
 1 2 3 4 5 6 8 10 11 12 14 16 
 18 20 21 23 25 26 29 30 33 34 37 38 
 39 40 42 43 44 46 48 52 53 54 55 56 
 57 59 62 64 65 66 67 69 70 
 47 
 1 2 5 6 7 8 9 13 14 15 17 19 
 21 23 24 25 26 27 28 29 30 32 38 39 
 40 42 43 45 46 47 48 49 50 51 53 55 
 56 60 61 62 63 64 65 67 69 70 71 
 56 
 1 2 3 4 5 6 7 8 9 11 12 13 
 15 16 18 20 21 22 23 24 25 26 28 29 
 30 31 32 33 34 36 37 38 42 44 45 46 
 47 48 49 51 52 53 54 55 56 57 58 59 
 61 62 65 66 67 68 69 71 
 26 
 1 4 8 13 16 17 18 20 23 24 33 36 
 38 41 46 48 49 50 53 58 59 63 64 66 
 69 70 
 63 
 1 2 3 4 5 6 7 8 9 10 11 12 
 13 14 15 16 17 18 20 21 22 23 24 25 
 26 27 28 29 30 31 32 33 34 36 37 38 
 39 40 41 42 43 44 46 47 50 51 52 54 
 55 56 57 58 60 61 62 63 64 65 66 67 
 68 69 70 
 51 
 1 2 5 6 7 8 10 11 12 13 14 15 
 16 17 18 21 22 23 25 27 28 29 30 31 
 32 33 34 35 36 37 38 39 40 41 43 45 
 46 48 50 51 52 53 55 60 62 63 64 65 
 66 67 69 
 10 
 6 11 13 18 24 50 52 56 67 68 
 16 
 1 2 4 9 13 34 35 47 51 52 54 58 
 59 60 62 68 
 29 
 4 12 14 17 19 25 26 27 29 30 31 33 
 37 38 39 45 47 48 49 52 57 62 63 65 
 67 68 69 70 71 
 51 
 1 4 5 7 8 10 11 14 16 17 18 19 
 21 22 23 24 25 27 29 30 31 32 34 35 
 37 39 40 41 44 45 46 47 49 50 51 52 
 54 55 57 58 59 60 61 62 63 64 65 66 
 67 68 69 
 44 
 2 8 10 14 15 16 19 20 25 27 28 29 
 30 31 32 33 37 38 39 40 41 42 43 44 
 45 47 48 49 50 51 52 54 55 57 59 60 
 62 63 64 65 66 68 69 70 
 36 
 1 4 5 6 8 12 14 17 18 22 23 24 
 25 27 28 29 30 34 35 36 44 45 46 48 
 49 51 54 56 57 60 62 63 65 67 68 71 
 15 
 7 13 18 25 27 32 34 38 42 45 46 50 
 59 63 68 
 31 
 1 3 5 10 13 14 17 20 21 24 25 27 
 29 31 32 35 38 45 46 50 51 52 53 55 
 57 60 62 63 65 66 68 
 50 
 2 5 6 7 8 9 10 11 12 13 15 16 
 17 18 24 26 27 29 30 31 32 35 36 38 
 39 40 41 42 43 44 45 46 47 48 49 50 
 52 53 57 58 59 60 62 63 64 65 66 67 
 69 70 
 19 
 9 11 12 24 26 33 37 43 45 52 56 57 
 60 61 63 64 65 68 71 
 24 
 2 6 10 11 14 15 21 22 24 25 26 27 
 29 30 32 36 37 39 50 51 54 57 58 61 
 14 
 1 9 12 15 17 18 23 27 32 50 52 54 
 62 67 
 35 
 5 9 11 14 15 16 20 21 25 28 29 32 
 33 34 35 36 40 42 43 44 45 46 48 49 
 50 52 55 57 60 61 62 65 68 69 70 
 43 
 2 4 6 8 9 11 14 15 16 18 20 21 
 22 24 25 26 29 31 33 34 36 38 39 40 
 41 43 45 46 48 49 51 54 55 56 58 59 
 61 62 65 66 67 68 70 
 10 
 4 22 23 28 44 50 55 68 70 71 
 33 
 2 4 6 8 11 13 14 15 17 19 20 21 
 22 23 31 32 34 35 36 37 38 39 40 53 
 55 56 58 59 60 63 66 69 70 
 49 
 1 3 4 5 7 8 9 10 12 14 15 16 
 17 18 20 21 22 23 24 25 26 31 34 35 
 36 38 40 43 44 45 47 48 50 51 53 54 
 55 57 58 59 60 61 62 63 65 67 68 70 
 71 
 9 
 2 6 8 16 19 53 56 61 64 
 9 
 37 39 44 50 51 54 57 68 69 
 59 
 1 2 3 4 5 6 7 8 9 10 11 12 
 14 15 16 17 18 19 22 23 24 25 28 29 
 30 31 32 33 34 35 36 37 38 39 40 43 
 44 46 47 48 49 50 51 52 53 54 55 57 
 58 59 62 63 64 65 66 67 68 69 70 
 59 
 1 2 3 4 5 6 7 8 9 10 11 13 
 14 15 16 17 18 20 21 22 23 25 26 28 
 29 30 31 32 35 36 37 38 39 40 41 42 
 43 44 45 46 47 48 50 51 52 55 56 57 
 58 60 61 62 63 65 66 68 69 70 71 
 57 
 2 3 4 5 6 7 8 11 12 14 16 18 
 19 20 21 22 23 24 25 28 29 30 31 32 
 34 35 36 37 38 39 41 42 43 44 45 47 
 49 50 51 52 53 54 55 56 57 58 59 60 
 61 62 63 65 66 68 69 70 71 
 35 
 2 3 7 8 10 13 15 19 26 27 28 30 
 31 32 33 36 37 38 39 41 43 44 46 50 
 51 52 53 57 59 62 63 65 67 70 71 
 2 
 42 63 
 49 
 1 3 4 5 6 7 9 10 11 14 15 16 
 17 18 19 22 23 25 26 27 28 29 34 36 
 37 38 39 40 41 42 43 44 48 49 50 51 
 54 56 57 58 62 63 64 65 66 67 68 70 
 71 
 26 
 3 4 7 10 12 13 17 18 19 21 26 30 
 33 35 37 40 42 44 45 48 49 50 56 58 
 69 71 
 63 
 2 3 4 6 7 8 9 10 11 12 13 14 
 15 16 17 18 19 20 21 22 23 25 26 27 
 28 30 31 32 33 34 35 37 38 39 40 41 
 42 45 46 47 48 49 50 51 52 54 55 56 
 57 58 59 60 61 62 63 64 65 66 67 68 
 69 70 71 
 7 
 10 25 35 42 47 52 58 
 18 
 1 4 8 11 14 20 25 35 37 39 44 45 
 47 52 54 55 58 60 
 62 
 1 2 3 4 5 7 8 10 11 13 14 15 
 16 17 19 20 21 22 23 24 27 28 30 31 
 32 33 34 35 36 37 38 39 40 42 43 44 
 45 46 47 49 50 51 52 53 54 55 56 57 
 58 59 60 61 62 63 64 65 66 67 68 69 
 70 71 
 22 
 1 7 15 16 17 19 27 32 35 37 39 44 
 45 46 47 48 53 56 61 67 69 70 
 8 
 18 22 25 26 27 45 62 66 
 39 
 4 6 7 8 10 11 12 14 16 17 18 19 
 23 25 27 28 29 32 37 38 42 44 45 47 
 48 49 50 57 59 61 62 63 64 65 66 67 
 69 70 71 
 54 
 1 2 3 4 6 8 9 10 12 13 14 15 
 16 17 18 19 20 21 22 23 25 27 28 29 
 30 31 32 33 34 35 37 39 40 41 42 43 
 44 47 49 50 52 55 56 57 58 59 61 62 
 65 66 67 68 69 70 
 38 
 1 3 4 5 8 11 15 16 17 18 23 25 
 27 29 30 32 33 35 36 38 40 42 45 47 
 48 49 50 51 53 57 58 59 61 63 66 67 
 68 69 
 29 
 5 9 10 12 13 15 17 19 23 25 34 38 
 40 41 44 48 49 51 52 53 54 57 58 62 
 63 65 66 69 70 
 28 
 1 2 6 7 8 11 13 14 16 17 18 20 
 22 26 32 34 36 39 40 42 48 53 59 62 
 64 66 69 70 
 32 
 2 8 10 13 16 19 20 22 24 25 30 31 
 32 33 35 36 39 40 42 44 46 47 48 50 
 51 52 58 59 61 63 68 69 
 40 
 2 4 5 7 8 9 11 12 13 15 16 18 
 19 21 25 28 29 31 32 33 35 37 38 39 
 42 43 46 48 50 52 53 56 57 60 61 63 
 64 66 69 71 
 24 
 3 4 12 13 15 18 19 24 26 28 30 34 
 41 42 45 47 49 50 55 56 58 60 67 70 
 17 
 6 11 22 23 25 27 30 33 37 43 51 55 
 58 61 63 65 71 
 45 
 3 4 5 6 8 9 10 11 12 14 16 17 
 18 19 21 22 23 24 28 30 31 32 33 34 
 35 41 42 43 45 47 50 51 53 54 55 56 
 58 59 61 63 64 65 67 70 71 
 45 
 4 5 7 8 9 11 13 14 16 17 18 19 
 21 22 23 24 25 28 29 31 32 34 36 37 
 38 40 41 42 43 44 45 47 50 53 54 56 
 57 58 60 62 63 65 66 67 70 
 41 
 9 10 12 14 15 18 19 21 22 23 24 25 
 27 28 30 31 33 35 36 37 38 39 40 41 
 42 43 44 47 48 49 50 51 52 55 57 58 
 62 64 66 67 70 
 32 
 1 3 6 7 8 13 14 19 23 24 25 26 
 27 30 31 33 34 35 36 38 39 41 42 43 
 44 49 57 59 60 62 63 70 
 67 
 1 2 3 4 5 7 8 9 10 11 12 13 
 14 15 16 17 18 19 20 21 22 23 24 25 
 26 27 28 29 30 31 32 33 34 35 37 38 
 40 41 42 43 44 45 46 47 48 49 50 51 
 52 53 54 55 56 57 58 59 60 61 62 63 
 64 65 67 68 69 70 71 
 50 
 1 2 5 6 7 8 9 11 12 14 15 16 
 17 19 20 21 23 24 25 26 27 28 30 33 
 34 36 39 40 41 44 46 47 49 50 51 52 
 53 55 56 58 59 60 61 62 63 67 68 69 
 70 71 
 59 
 1 2 3 4 5 6 7 8 9 10 11 12 
 16 17 18 19 21 22 24 25 27 28 29 30 
 31 32 33 35 36 37 39 40 41 42 43 44 
 45 46 47 48 49 51 52 53 54 55 58 59 
 60 61 62 63 64 65 66 67 68 70 71 
 5 
 16 32 35 66 70 
 36 
 1 3 5 9 10 12 13 14 17 20 22 23 
 25 29 30 33 36 37 38 40 41 42 43 44 
 46 51 52 53 55 56 57 60 61 62 64 70 
 48 
 1 3 4 6 7 10 11 16 17 18 22 23 
 24 25 26 27 28 29 31 32 34 35 36 37 
 39 41 42 44 45 46 47 49 51 52 53 54 
 55 56 59 60 61 62 64 65 66 67 68 69 
 4 
 2 9 18 23 
 11 
 1 2 10 18 20 28 31 35 47 58 68 
 42 
 2 4 5 6 7 10 11 12 13 14 15 16 
 22 23 27 28 29 30 35 39 41 42 43 44 
 46 48 51 52 53 55 56 57 59 60 61 62 
 63 64 65 67 69 71 
 56 
 1 2 3 4 5 6 7 8 9 12 14 15 
 18 19 20 21 22 24 26 27 28 30 31 32 
 33 34 35 36 37 38 39 41 42 43 45 46 
 47 48 50 51 53 54 55 56 58 59 60 61 
 62 65 66 67 68 69 70 71 
 57 
 1 2 3 4 5 6 7 8 9 10 11 12 
 13 14 15 16 17 18 19 22 23 24 26 27 
 30 31 32 33 34 35 36 39 41 42 43 44 
 45 46 48 50 51 52 53 54 55 56 58 60 
 62 63 64 65 66 68 69 70 71 
 66 
 1 2 3 4 5 6 7 8 9 10 12 13 
 14 15 16 17 18 19 20 21 22 23 24 25 
 27 28 29 31 32 33 34 35 36 37 38 39 
 40 41 42 43 44 46 47 48 49 50 51 52 
 53 54 55 56 57 58 59 60 62 63 64 65 
 66 67 68 69 70 71 
 69 
 1 2 3 4 5 6 7 8 9 10 11 12 
 13 14 16 17 18 19 20 21 22 23 24 25 
 26 27 28 29 30 31 33 34 35 36 37 38 
 39 40 41 42 43 44 45 46 47 48 49 50 
 51 52 53 54 55 56 57 58 59 60 61 62 
 63 64 65 66 67 68 69 70 71 
 70 
 1 2 3 4 5 6 7 8 9 10 11 12 
 13 14 15 16 17 18 19 20 21 22 23 24 
 25 26 27 28 29 30 31 33 34 35 36 37 
 38 39 40 41 42 43 44 45 46 47 48 49 
 50 51 52 53 54 55 56 57 58 59 60 61 
 62 63 64 65 66 67 68 69 70 71 
 71 
 1 2 3 4 5 6 7 8 9 10 11 12 
 13 14 15 16 17 18 19 20 21 22 23 24 
 25 26 27 28 29 30 31 32 33 34 35 36 
 37 38 39 40 41 42 43 44 45 46 47 48 
 49 50 51 52 53 54 55 56 57 58 59 60 
 61 62 63 64 65 66 67 68 69 70 71 
 36 
 5 6 7 8 10 12 13 14 15 16 18 20 
 22 23 25 27 31 32 34 35 38 39 42 44 
 45 46 51 53 54 55 58 62 63 64 67 68 
 67 
 1 2 3 4 5 6 7 8 9 10 12 13 
 14 15 16 17 18 19 20 21 23 24 25 26 
 27 28 29 30 31 32 33 34 35 36 37 38 
 39 40 41 42 43 44 45 46 47 48 49 50 
 51 52 53 55 56 57 58 60 61 62 63 64 
 65 66 67 68 69 70 71 
 28 
 1 4 5 7 11 14 22 27 30 31 33 37 
 41 42 44 46 49 50 51 53 55 59 62 63 
 64 65 67 71 
 60 
 1 2 3 4 6 7 8 9 10 11 12 14 
 15 16 18 19 20 21 22 25 26 27 28 30 
 31 32 33 34 35 36 37 39 40 43 44 45 
 46 47 48 49 50 51 52 53 54 55 56 57 
 58 59 60 61 62 63 64 65 66 68 70 71 
 6 
 2 10 22 28 34 56 
 67 
 1 2 3 4 5 6 7 8 9 10 11 12 
 13 14 15 16 17 18 19 20 21 22 23 24 
 25 26 27 28 29 30 31 34 35 36 37 38 
 39 40 41 42 43 44 45 46 47 48 49 50 
 51 52 53 54 55 56 57 59 60 61 62 63 
 64 65 66 67 68 69 71 
 46 
 2 4 5 7 8 11 12 14 15 17 18 19 
 22 23 24 25 26 27 28 30 31 35 36 38 
 39 40 41 42 43 44 45 46 50 51 52 56 
 57 59 60 62 64 65 66 67 68 69 
 13 
 6 8 10 20 22 27 30 37 38 40 47 54 
 57 
 68 
 1 2 3 4 5 6 7 8 9 10 11 12 
 13 14 15 17 18 19 20 21 22 23 24 25 
 26 27 28 29 30 31 32 33 34 35 36 37 
 39 40 41 42 43 44 45 46 47 48 49 50 
 51 52 53 54 55 56 57 58 59 60 61 63 
 64 65 66 67 68 69 70 71 
 54 
 1 3 4 5 6 8 9 10 12 13 14 15 
 16 18 19 20 21 22 23 24 26 27 31 32 
 34 35 36 39 40 41 43 44 45 46 47 48 
 49 50 52 53 55 57 58 59 60 61 62 63 
 64 65 66 67 68 69 
 44 
 1 3 6 7 10 12 13 17 18 20 22 23 
 24 26 29 30 31 33 34 35 37 38 40 41 
 42 45 46 48 49 51 53 55 56 58 59 61 
 62 64 65 66 67 68 69 71 
 32 
 1 2 3 6 7 8 15 18 19 21 23 24 
 27 28 29 32 35 38 39 45 46 47 48 49 
 51 54 57 59 62 63 64 68 
 10 
 2 16 23 25 42 45 50 62 67 71 
 21 
 2 3 11 16 22 23 29 32 34 36 39 40 
 44 50 52 54 56 57 63 64 65 
 7 
 1 5 6 24 29 58 71 
 65 
 1 2 3 4 5 6 7 8 9 10 11 12 
 13 14 15 16 17 18 19 20 21 22 23 24 
 25 26 27 28 29 30 31 33 34 35 36 37 
 38 39 40 41 43 44 45 48 49 50 51 53 
 55 56 57 58 59 60 61 62 63 64 65 66 
 67 68 69 70 71 
 20 
 2 7 10 12 17 19 32 33 44 48 49 56 
 57 58 59 60 61 64 66 70 
 20 
 5 6 9 13 15 17 20 21 27 28 35 37 
 45 47 52 58 60 66 67 71 
 6 
 2 19 21 28 29 50 
 13 
 14 40 43 44 47 49 52 53 54 61 63 64 
 67 
 51 
 1 2 3 9 12 13 15 16 17 19 21 22 
 23 24 26 27 28 29 32 33 34 36 37 38 
 39 40 42 43 44 46 47 48 50 52 53 54 
 55 56 57 59 60 62 63 64 65 66 67 68 
 69 70 71 
 17 
 2 5 6 10 15 21 22 28 32 33 38 42 
 44 48 59 60 70 
 24 
 2 4 7 12 14 21 22 24 27 29 34 36 
 37 43 49 51 52 55 56 57 60 65 66 70 
 30 
 3 8 9 10 13 14 15 16 20 21 25 26 
 28 30 32 33 34 35 38 42 44 47 49 52 
 56 58 63 67 69 71 
 62 
 1 2 4 6 7 8 9 10 11 12 13 14 
 15 16 17 18 19 20 21 23 24 25 27 28 
 29 30 31 32 33 34 35 36 37 38 39 40 
 43 44 46 47 48 50 51 53 54 55 56 57 
 58 59 60 61 62 63 64 65 66 67 68 69 
 70 71 
 32 
 1 2 4 7 12 16 17 18 20 21 22 25 
 27 28 29 30 32 35 37 40 44 49 52 58 
 60 62 64 65 67 68 69 71 
 33 
 1 4 5 7 8 9 12 14 15 17 20 21 
 24 25 32 35 37 38 39 40 44 47 48 52 
 54 55 58 59 63 64 65 68 71 
 21 
 6 11 12 14 15 16 31 32 34 37 38 42 
 43 44 45 47 48 50 54 65 67 
 68 
 1 2 3 4 5 6 7 8 9 10 11 12 
 13 14 15 16 17 18 19 20 21 22 23 24 
 25 26 27 28 29 30 31 32 33 34 35 36 
 37 38 39 41 42 43 44 45 46 47 48 49 
 50 51 52 53 54 55 57 59 60 61 62 63 
 64 65 66 67 68 69 70 71 
 31 
 1 2 3 6 10 11 14 16 17 18 19 22 
 23 26 32 35 36 44 45 46 48 49 50 55 
 56 57 59 61 65 66 68 
 18 
 7 10 13 17 28 29 31 38 39 47 51 53 
 54 55 59 64 65 70 
 45 
 1 2 3 4 5 6 7 8 9 10 12 15 
 16 17 20 21 23 27 28 29 33 34 35 37 
 38 39 41 42 43 45 46 47 48 50 51 55 
 56 57 58 59 60 61 62 69 71 
 7 
 3 15 38 41 42 43 64 
 5 
 37 47 52 62 71 
 17 
 5 8 10 12 13 23 25 28 30 31 35 36 
 41 43 44 55 58 
 68 
 1 2 3 4 5 6 7 8 9 10 11 12 
 13 14 15 16 17 19 20 21 22 23 24 25 
 26 27 28 29 30 31 32 33 34 35 36 37 
 38 39 40 41 43 44 45 46 47 49 50 51 
 52 53 54 55 56 57 58 59 60 61 62 63 
 64 65 66 67 68 69 70 71 
 29 
 1 6 8 10 12 17 18 21 22 23 25 26 
 27 28 31 34 37 38 39 41 42 43 47 49 
 55 58 63 66 71 
 4 
 3 29 32 51 
 45 
 1 2 4 8 9 10 12 15 16 17 20 21 
 23 26 27 29 30 31 32 33 34 36 37 39 
 40 41 42 43 44 45 47 49 52 53 54 55 
 56 59 61 63 66 67 68 70 71 
 63 
 1 2 3 5 6 7 8 9 10 11 12 13 
 14 15 16 17 18 19 20 21 22 25 26 27 
 28 29 30 31 32 35 36 37 39 40 41 42 
 43 45 46 47 48 50 51 52 53 54 55 56 
 57 58 59 60 61 62 63 64 65 66 67 68 
 69 70 71 
 45 
 1 4 5 6 8 9 11 12 13 15 16 17 
 18 19 20 23 24 25 26 27 30 31 37 38 
 39 42 44 46 49 51 53 54 56 57 59 60 
 61 62 63 65 67 68 69 70 71 
 33 
 3 4 5 6 7 9 10 12 13 16 17 18 
 20 22 29 30 31 33 36 40 42 48 49 55 
 56 57 59 60 66 67 69 70 71 
 11 
 9 13 21 22 30 41 45 54 56 61 67 
 49 
 2 3 4 5 6 7 8 9 10 11 12 14 
 15 18 20 21 25 26 27 28 29 30 33 35 
 36 37 38 40 41 42 43 46 47 50 51 52 
 53 54 55 56 57 59 61 62 64 66 68 69 
 70 
 44 
 2 4 5 8 10 13 14 15 17 20 21 23 
 24 26 27 29 30 31 32 35 36 37 38 39 
 41 45 46 47 48 50 53 55 56 57 58 60 
 61 64 65 66 67 69 70 71 
 18 
 4 5 6 11 16 22 26 27 36 40 45 51 
 52 53 56 59 65 71 
 47 
 1 3 4 5 7 8 9 10 12 13 14 15 
 16 17 20 21 23 24 25 26 27 28 30 32 
 33 35 37 38 39 40 42 43 45 49 52 53 
 54 55 56 57 60 61 64 65 66 67 71 
 36 
 3 6 7 8 9 15 17 19 20 25 26 27 
 28 30 33 34 36 40 41 42 43 45 46 49 
 50 54 55 57 59 60 63 64 65 66 67 68 
 29 
 4 6 7 8 9 13 15 16 20 21 22 25 
 26 31 34 35 38 40 41 46 47 49 53 54 
 55 58 64 68 71 
 26 
 3 5 9 12 15 18 25 27 32 34 36 39 
 40 41 43 44 45 49 51 52 53 55 56 58 
 65 71 
 70 
 1 2 3 4 5 6 7 8 9 10 11 12 
 13 14 16 17 18 19 20 21 22 23 24 25 
 26 27 28 29 30 31 32 33 34 35 36 37 
 38 39 40 41 42 43 44 45 46 47 48 49 
 50 51 52 53 54 55 56 57 58 59 60 61 
 62 63 64 65 66 67 68 69 70 71 
 8 
 1 5 12 16 23 37 46 66 
 62 
 1 2 3 4 5 6 7 8 10 12 13 14 
 16 18 20 21 22 23 24 25 26 27 28 29 
 30 31 32 33 34 35 36 37 38 39 40 41 
 42 43 44 45 46 47 48 49 52 53 54 55 
 56 57 58 59 61 62 63 64 66 67 68 69 
 70 71 
 71 
 1 2 3 4 5 6 7 8 9 10 11 12 
 13 14 15 16 17 18 19 20 21 22 23 24 
 25 26 27 28 29 30 31 32 33 34 35 36 
 37 38 39 40 41 42 43 44 45 46 47 48 
 49 50 51 52 53 54 55 56 57 58 59 60 
 61 62 63 64 65 66 67 68 69 70 71 
 35 
 1 2 3 5 6 9 11 13 20 22 24 28 
 31 33 34 35 37 38 40 41 42 45 47 49 
 50 53 55 58 60 63 65 67 68 69 71 
 35 
 1 3 4 5 6 11 13 14 19 20 21 22 
 26 27 28 29 36 39 40 41 42 43 45 47 
 48 49 50 51 57 63 66 67 68 69 70 
 14 
 4 5 8 13 15 24 25 27 28 30 34 37 
 48 66 
 62 
 1 2 3 4 5 6 7 8 9 10 11 12 
 13 14 15 16 17 18 19 20 22 24 25 26 
 28 29 30 32 33 35 36 37 38 39 40 41 
 42 43 44 45 46 47 48 49 50 51 52 53 
 55 56 57 58 59 60 62 64 65 66 67 68 
 69 70 
 58 
 1 2 3 4 5 6 7 9 10 12 13 14 
 15 16 17 18 19 20 21 22 24 25 26 27 
 29 30 31 32 33 34 37 38 39 43 44 45 
 46 47 48 49 50 51 52 53 54 55 56 57 
 58 60 61 62 63 64 65 68 69 71 
 24 
 2 5 6 7 11 12 15 16 17 20 22 25 
 27 28 31 38 39 51 52 55 57 58 67 69 
 2 
 23 33 
 70 
 1 2 3 4 5 6 7 8 9 10 11 12 
 13 14 15 16 17 18 19 20 21 22 23 24 
 25 26 27 28 29 30 31 32 33 34 35 36 
 37 38 39 40 41 42 43 44 45 46 47 48 
 49 50 51 53 54 55 56 57 58 59 60 61 
 62 63 64 65 66 67 68 69 70 71 
 64 
 1 2 3 4 5 6 7 9 10 11 12 13 
 14 15 16 18 19 20 21 22 23 24 25 26 
 27 28 29 30 31 32 33 34 35 36 37 38 
 39 41 42 43 44 45 46 48 49 50 51 52 
 55 56 57 58 59 60 61 62 63 64 65 66 
 67 68 69 71 
 58 
 1 2 3 5 7 8 9 11 12 13 14 15 
 17 18 19 20 21 22 23 25 26 27 29 30 
 31 32 33 34 35 37 38 39 40 41 42 43 
 45 46 47 48 49 52 53 54 55 56 57 58 
 59 60 61 62 64 65 67 68 69 70 
 29 
 2 3 4 7 10 14 16 25 26 31 33 34 
 35 36 39 41 42 48 49 50 51 54 57 58 
 64 67 68 70 71 
 46 
 2 3 5 6 7 8 10 11 12 13 14 15 
 19 20 21 22 23 24 25 26 28 30 32 33 
 34 35 39 40 41 43 46 47 48 49 50 53 
 55 56 57 58 59 61 65 67 68 70 
 19 
 3 4 10 14 15 18 20 25 28 31 34 44 
 45 47 48 54 57 58 63 
 51 
 1 2 3 4 5 6 7 8 9 10 11 13 
 14 15 16 18 19 21 23 24 25 27 28 30 
 32 33 34 37 38 40 41 43 45 46 47 49 
 50 52 53 54 56 57 58 60 61 64 67 68 
 69 70 71 
 8 
 7 10 14 34 37 46 50 68 
 45 
 2 3 4 5 6 7 8 11 12 13 15 16 
 17 19 20 22 24 27 30 31 32 34 37 38 
 39 40 41 42 43 46 47 48 49 51 53 54 
 58 59 60 64 65 66 67 68 69 
 5 
 7 9 24 28 52 
 30 
 1 2 4 5 7 12 13 14 15 16 18 24 
 25 26 27 28 33 35 37 38 41 44 45 47 
 49 50 57 59 60 61 
 58 
 1 3 4 5 6 7 8 9 10 12 13 14 
 15 17 18 19 20 22 23 24 25 27 29 31 
 32 33 34 35 36 37 38 39 40 41 42 43 
 45 47 48 49 51 52 53 54 55 56 57 58 
 59 60 61 62 63 64 65 67 68 70 
 4 
 30 56 61 69 
 36 
 1 2 4 5 7 9 16 18 25 27 28 29 
 31 32 34 35 41 44 46 47 50 51 52 53 
 56 58 60 61 62 64 66 67 68 69 70 71 
 31 
 2 5 9 11 12 14 17 20 22 24 25 28 
 29 31 33 36 41 47 48 49 50 51 53 57 
 59 61 63 65 66 69 71 
 68 
 1 2 3 4 5 6 7 8 9 10 11 12 
 13 14 15 16 17 18 19 20 21 22 23 24 
 25 26 27 28 29 30 31 32 33 34 35 36 
 37 38 39 40 41 42 43 44 45 46 47 48 
 49 50 51 52 53 54 56 57 58 59 60 61 
 62 63 64 65 66 68 70 71 
 53 
 1 3 4 6 7 8 9 10 12 13 14 15 
 16 17 18 19 20 21 22 23 24 25 27 28 
 29 32 33 34 35 36 37 38 40 43 44 45 
 46 47 49 51 53 54 56 58 60 61 63 65 
 66 67 68 69 71 
 60 
 1 2 3 4 5 6 7 8 9 10 11 12 
 13 14 15 17 18 19 20 21 22 23 24 25 
 26 27 28 29 30 32 34 35 36 37 39 41 
 42 43 44 45 48 49 50 51 54 55 56 57 
 59 60 61 62 63 64 65 66 67 68 70 71 
 22 
 2 3 7 13 14 18 19 24 31 32 33 41 
 43 45 46 47 50 52 59 66 69 71 
 65 
 1 2 3 4 5 6 7 8 9 10 11 12 
 13 14 15 16 17 18 19 20 21 22 23 24 
 25 27 28 29 30 31 32 34 35 36 38 39 
 40 41 42 43 44 45 46 47 48 51 52 53 
 54 55 56 57 59 60 61 62 63 64 65 66 
 67 68 69 70 71 
 34 
 1 9 11 12 13 14 21 23 24 25 26 28 
 29 30 32 33 35 37 38 39 42 47 49 50 
 55 56 59 60 63 64 66 67 68 69 
 24 
 1 2 4 7 10 12 13 18 21 24 28 29 
 37 41 43 50 54 56 58 59 61 66 69 71 
 47 
 1 3 4 5 6 8 9 10 11 12 13 14 
 17 20 21 22 23 25 26 30 31 32 33 34 
 35 36 37 40 41 42 44 48 49 52 54 55 
 56 57 59 61 62 64 65 66 69 70 71 
 2 
 4 43 
 40 
 1 2 3 4 6 7 8 9 11 13 14 15 
 18 20 22 24 25 26 29 30 31 32 33 34 
 36 37 39 41 44 47 51 52 53 54 56 60 
 62 67 69 70 
 27 
 1 2 3 6 8 10 12 13 18 20 21 22 
 28 29 33 37 38 39 40 46 48 55 56 57 
 58 66 67 
 38 
 1 4 5 6 7 8 9 10 12 13 15 19 
 20 22 23 24 25 32 34 36 37 38 40 42 
 45 46 47 49 50 51 52 54 55 56 63 68 
 69 70 
 20 
 1 2 4 5 9 27 28 29 30 38 39 41 
 45 47 49 51 52 54 59 60 
 17 
 4 7 10 19 28 29 32 39 46 48 50 51 
 52 56 63 67 68 
 11 
 10 13 14 16 20 28 29 32 43 47 62 
 45 
 1 2 3 5 6 7 8 10 12 13 15 17 
 19 20 21 22 23 25 26 28 30 31 33 34 
 35 38 39 41 42 43 45 49 52 53 54 57 
 59 61 62 64 65 66 67 68 70 
 68 
 1 2 3 4 5 6 7 8 9 10 11 12 
 13 14 15 16 17 18 19 20 21 22 23 24 
 25 27 28 29 30 31 32 33 34 35 36 37 
 38 39 40 41 42 43 44 45 46 47 48 49 
 50 52 54 55 56 57 58 59 60 61 62 63 
 64 65 66 67 68 69 70 71 
 13 
 12 14 17 33 34 41 43 45 47 49 55 58 
 59 
 42 
 1 2 6 8 9 10 11 13 14 15 16 17 
 18 19 21 23 26 27 30 32 34 35 36 38 
 39 40 41 42 44 46 49 50 51 52 54 60 
 62 64 65 66 69 71 
 